(declare-fun ExpandObjSwitcher () Real)
(declare-fun Constructed_Argument_t () String)
(declare-fun Constructed_Argument_Array_Length () Int)
(declare-fun CreateAsClass () Bool)
(declare-fun Constructed_Argument_2_t () String)
(assert (= ExpandObjSwitcher 3.0))
(assert (= Constructed_Argument_t "array_number"))
(assert (>= Constructed_Argument_Array_Length 0))
(assert (not CreateAsClass))
(assert (not (= Constructed_Argument_2_t "string")))
(assert (= Constructed_Argument_2_t "number"))
(check-sat)
